c ---- [ banner ] ------------------------------------------------------------
c
c Kissat SAT Solver
c 
c Copyright (c) 2021-2024 Armin Biere University of Freiburg
c Copyright (c) 2019-2021 Armin Biere Johannes Kepler University Linz
c 
c Version 4.0.1 43f02cf3e992cb44653b35e5cb26f93281552ae0
c gcc (Ubuntu 13.2.0-23ubuntu4) 13.2.0 -W -Wall -O3 -DNDEBUG
c Thu Sep 12 12:27:46 CEST 2024 Linux abryzen9 6.8.0-41-generic x86_64
c
c ---- [ parsing ] -----------------------------------------------------------
c
c opened and reading DIMACS file:
c
c   /data/artifact/AMulet2.0_artifact/exp4/cnf_dc2_64/64_64_U_SP_DT_RC_GenMul_dc2.cnf
c
c parsed 'p cnf 28698 127342' header
c closing input after reading 2551688 bytes (2 MB)
c finished parsing after 0.03 seconds
c
c ---- [ options ] -----------------------------------------------------------
c
c --stable=0                       (different from default '1')
c
c ---- [ solving ] -----------------------------------------------------------
c
c  seconds switched rate     size/glue tier1  binary           remaining
c         MB reductions conflicts size  tier2     irredundant
c          level restarts redundant glue  trail           variables
c
c *  0.03 10 0 0 0  0 0   0   0 0.0 0 0 0 0 0% 10343 116997 28695 100%
c (  0.06 12 0 0 0  0 0   0   0 0.0 0 0 0 0 0% 10343 116997 28695 100%
c .  0.07 12 0 0 0  0 0   0   0 0.0 0 0 0 0 0% 10339 116997 28695 100%
c c  0.16 17 0 0 0  0 0   0   0 0.0 0 0 0 0 0% 16865 103945 25432 89%
c d  0.17 17 0 0 0  0 0   0   0 0.0 0 0 0 0 0% 10339 103945 25432 89%
c =  0.23 17 0 0 0  0 0   0   0 0.0 0 0 0 0 0% 10999 103945 25102 87%
c d  0.24 17 0 0 0  0 0   0   0 0.0 0 0 0 0 0% 10339 103945 25102 87%
c f  0.36 17 0 0 0  0 0   0   0 0.0 0 0 0 0 0% 14945 96686 27690 96%
c e  0.55 24 0 0 0  0 0   0   0 0.0 0 0 0 0 0% 9323 104101 19019 66%
c )  0.55 24 0 0 0  0 0   0   0 0.0 0 0 0 0 0% 9323 104101 19019 66%
c {  0.58 26 0 0 0  0 0   0   0 0.0 0 0 2 6 0% 9323 104101 19019 66%
c -  0.95 26 174 0 1 175 33 1000 750 4.4 32 7 3 13 32% 9344 104101 19019 66%
c -  1.17 26 222 0 2 255 30 2001 1383 4.1 29 7 3 13 30% 9373 104101 19019 66%
c c  1.31 20 210 0 2 293 29 2503 1730 4.1 29 7 3 11 28% 9442 103845 18980 66%
c d  1.32 20 210 0 2 293 29 2503 1719 4.1 29 7 3 11 28% 9364 103845 18980 66%
c u  1.34 20 210 0 2 293 29 2503 1439 4.1 29 7 3 11 28% 9367 103845 18980 66%
c v  1.37 20 210 0 2 293 29 2503 1264 4.1 29 7 3 11 28% 9367 103845 18980 66%
c w  1.39 20 210 0 2 293 29 2503 1264 4.1 29 7 3 11 28% 9367 103845 18980 66%
c x  1.41 20 210 0 2 293 29 2503 1264 4.1 29 7 3 11 28% 9367 103813 18980 66%
c =  1.51 23 210 0 2 293 29 2503 1264 4.1 29 7 3 11 28% 9815 103813 18756 65%
c
c  seconds   switched   rate       size/glue tier1     binary          remaining
c         MB  reductions conflicts       size  tier2      irredundant
c           level restarts    redundant    glue    trail          variables
c
c d  1.51 23 210 0 2 293 29 2503 1254 4.1 29 7 3 11 28% 9362 103813 18755 65%
c f  1.56 23 210 0 2 293 29 2503 1254 4.1 29 7 3 11 28% 9930 102677 19323 67%
c u  1.64 23 210 0 2 293 29 2503 1221 4.1 29 7 3 11 28% 9930 102677 19323 67%
c v  1.66 23 210 0 2 293 29 2503 1120 4.1 29 7 3 11 28% 9930 102677 19323 67%
c w  1.71 23 210 0 2 293 29 2503 1117 4.1 29 7 3 11 28% 9930 102677 19323 67%
c =  1.78 23 210 0 2 293 29 2503 1117 4.1 29 7 3 11 28% 10102 102677 19237 67%
c d  1.79 23 210 0 2 293 29 2503 1117 4.1 29 7 3 11 28% 9905 102677 19237 67%
c f  1.84 23 210 0 2 293 29 2503 1117 4.1 29 7 3 11 28% 9961 102593 19265 67%
c -  1.99 25 197 0 3 336 25 3416 1625 3.7 25 7 3 11 26% 9974 102593 19265 67%
c -  2.53 25 246 0 4 547 30 5148 2654 3.8 26 7 3 11 27% 10042 102593 19265 67%
c -  3.07 25 273 0 5 757 31 7148 3789 3.9 26 7 3 11 28% 10100 102593 19265 67%
c d  3.31 25 266 0 5 862 31 7706 4255 3.8 26 7 3 11 28% 10058 102593 19234 67%
c u  3.35 25 266 0 5 862 31 7706 3549 3.8 26 7 3 11 28% 10078 102593 19234 67%
c v  3.39 25 266 0 5 862 31 7706 3215 3.8 26 7 3 11 28% 10078 102593 19234 67%
c w  3.43 25 266 0 5 862 31 7706 3214 3.8 26 7 3 11 28% 10078 102593 19234 67%
c x  3.46 25 266 0 5 862 31 7706 3214 3.8 26 7 3 11 28% 10078 101865 19234 67%
c =  3.60 25 266 0 5 862 31 7706 3214 3.8 26 7 3 11 28% 11066 101865 18740 65%
c d  3.61 25 266 0 5 862 31 7706 3175 3.8 26 7 3 11 28% 9942 101865 18738 65%
c t  3.63 25 266 0 5 862 31 7706 3175 3.8 26 7 3 11 28% 9938 101865 18738 65%
c f  3.68 25 266 0 5 862 31 7706 3175 3.8 26 7 3 11 28% 10271 101353 18905 66%
c
c  seconds   switched   rate       size/glue tier1     binary           remaining
c         MB  reductions conflicts       size  tier2       irredundant
c           level restarts    redundant    glue    trail           variables
c
c c  3.75 25 266 0 5 862 31 7706 3175 3.8 26 7 3 11 28% 10273 101343 18904 66%
c d  3.76 25 266 0 5 862 31 7706 3175 3.8 26 7 3 11 28% 10271 101343 18904 66%
c u  3.79 25 266 0 5 862 31 7706 3046 3.8 26 7 3 11 28% 10274 101343 18904 66%
c v  3.83 25 266 0 5 862 31 7706 2972 3.8 26 7 3 11 28% 10274 101343 18904 66%
c w  3.87 25 266 0 5 862 31 7706 2963 3.8 26 7 3 11 28% 10274 101343 18904 66%
c x  3.90 25 266 0 5 862 31 7706 2963 3.8 26 7 3 11 28% 10274 101304 18904 66%
c =  4.04 25 266 0 5 862 31 7706 2963 3.8 26 7 3 11 28% 11276 101304 18403 64%
c d  4.05 25 266 0 5 862 31 7706 2941 3.8 26 7 3 11 28% 10145 101304 18403 64%
c t  4.07 25 266 0 5 862 31 7706 2941 3.8 26 7 3 11 28% 10072 101304 18403 64%
c f  4.12 25 266 0 5 862 31 7706 2941 3.8 26 7 3 11 28% 12068 98306 19401 68%
c -  4.79 25 287 0 6 1104 33 9386 3751 4.4 31 7 2 10 29% 12102 98306 19401 68%
c o  4.93 25 288 0 6 1146 33 10005 4304 4.3 30 7 2 10 30% 12113 98306 19401 68%
c -  5.44 25 296 0 7 1322 33 11835 5143 4.2 30 7 2 10 29% 12142 98306 19401 68%
c s  5.77 25 292 0 7 1422 33 12507 5754 4.3 31 7 2 10 29% 12157 91601 19401 68%
c e  5.89 26 292 0 7 1422 33 12507 5754 4.3 31 7 2 10 29% 11296 92195 18874 66%
c s  5.89 26 292 0 7 1422 33 12507 5754 4.3 31 7 2 10 29% 11297 91697 18874 66%
c ^  5.90 26 292 0 7 1422 33 12507 5754 4.3 31 7 2 10 29% 11297 91697 18874 66%
c -  6.56 26 292 0 8 1645 34 14480 6190 4.5 33 7 2 10 29% 11331 91697 18874 66%
c d  6.96 26 296 0 8 1771 35 15785 7378 4.5 33 7 2 10 29% 11062 91697 18707 65%
c u  7.00 26 296 0 8 1771 35 15785 6610 4.5 33 7 2 10 29% 11071 91697 18707 65%
c
c  seconds   switched    rate        size/glue tier1     binary          remaining
c         MB  reductions   conflicts       size  tier2       irredundant
c           level  restarts     redundant    glue    trail          variables
c
c v  7.05 26 296 0 8 1771 35 15785 5593 4.5 33 7 2 10 29% 11073 91697 18707 65%
c w  7.22 26 296 0 8 1771 35 15785 5577 4.5 33 7 2 10 29% 11073 91697 18707 65%
c =  7.49 26 296 0 8 1771 35 15785 5577 4.5 33 7 2 10 29% 11927 91693 18280 64%
c d  7.50 26 296 0 8 1771 35 15785 5488 4.5 33 7 2 10 29% 10950 91693 18280 64%
c t  7.52 26 296 0 8 1771 35 15785 5488 4.5 33 7 2 10 29% 10882 91693 18280 64%
c f  7.59 26 296 0 8 1771 35 15785 5488 4.5 33 7 2 10 29% 11014 91429 18346 64%
c u  7.63 26 296 0 8 1771 35 15785 5311 4.5 33 7 2 10 29% 11017 91429 18346 64%
c v  7.68 26 296 0 8 1771 35 15785 5179 4.5 33 7 2 10 29% 11017 91429 18346 64%
c w  7.80 26 296 0 8 1771 35 15785 5171 4.5 33 7 2 10 29% 11017 91429 18346 64%
c x  7.85 26 296 0 8 1771 35 15785 5171 4.5 33 7 2 10 29% 11042 90951 18346 64%
c =  8.13 26 296 0 8 1771 35 15785 5171 4.5 33 7 2 10 29% 13952 90951 16891 59%
c d  8.14 26 296 0 8 1771 35 15785 5083 4.5 33 7 2 10 29% 9858 90951 16891 59%
c -  8.56 26 292 0 9 1891 34 17308 5537 4.5 34 8 2 10 29% 9900 90951 16891 59%
c o  9.12 26 285 0 9 2077 33 20006 7940 4.5 33 7 2 10 29% 9933 90951 16891 59%
c -  9.26 26 284 0 10 2118 33 20309 7228 4.5 34 8 2 10 29% 9937 90951 16891 59%
c - 10.14 26 284 0 11 2453 33 23471 8757 4.6 36 8 2 9 29% 9992 90951 16891 59%
c s 10.51 26 281 0 11 2581 33 25007 10094 4.6 36 8 2 9 29% 10019 85563 16891 59%
c e 10.62 26 281 0 11 2581 33 25007 10094 4.6 36 8 2 9 29% 8681 87330 16079 56%
c s 10.62 26 281 0 11 2581 33 25007 10094 4.6 36 8 2 9 29% 8681 86978 16079 56%
c e 10.63 26 281 0 11 2581 33 25007 10094 4.6 36 8 2 9 29% 8675 86986 16077 56%
c
c  seconds   switched     rate         size/glue tier1    binary         remaining
c         MB   reductions   conflicts        size  tier2     irredundant
c           level   restarts      redundant    glue   trail         variables
c
c ^ 10.63 26 281 0 11 2581 33 25007 10094 4.6 36 8 2 9 29% 8675 86986 16077 56%
c - 10.84 26 277 0 12 2648 31 26788 9627 4.5 35 8 2 8 28% 8684 86986 16077 56%
c c 10.95 26 277 0 12 2665 31 26912 9746 4.5 35 8 2 8 28% 8747 86694 16040 56%
c d 10.96 26 277 0 12 2665 31 26912 9706 4.5 35 8 2 8 28% 8583 86694 15986 56%
c u 11.00 26 277 0 12 2665 31 26912 8653 4.5 35 8 2 8 28% 8598 86694 15986 56%
c v 11.05 26 277 0 12 2665 31 26912 7705 4.5 35 8 2 8 28% 8598 86694 15986 56%
c w 11.07 26 277 0 12 2665 31 26912 7701 4.5 35 8 2 8 28% 8598 86694 15986 56%
c x 11.13 26 277 0 12 2665 31 26912 7701 4.5 35 8 2 8 28% 8598 85367 15986 56%
c = 11.41 26 277 0 12 2665 31 26912 7701 4.5 35 8 2 8 28% 11338 85343 14615 51%
c d 11.42 26 277 0 12 2665 31 26912 7544 4.5 35 8 2 8 28% 8545 85343 14615 51%
c t 11.44 26 277 0 12 2665 31 26912 7544 4.5 35 8 2 8 28% 8541 85343 14615 51%
c f 11.49 26 277 0 12 2665 31 26912 7544 4.5 35 8 2 8 28% 8536 85326 14620 51%
c u 11.54 26 277 0 12 2665 31 26912 7251 4.5 35 8 2 8 28% 8542 85326 14620 51%
c v 11.58 26 277 0 12 2665 31 26912 7090 4.5 35 8 2 8 28% 8542 85326 14620 51%
c w 11.60 26 277 0 12 2665 31 26912 7086 4.5 35 8 2 8 28% 8542 85326 14620 51%
c x 11.70 26 277 0 12 2665 31 26912 7086 4.5 35 8 2 8 28% 8542 79524 14620 51%
c = 11.93 26 277 0 12 2665 31 26912 7086 4.5 35 8 2 8 28% 8650 79524 14566 51%
c d 11.94 26 277 0 12 2665 31 26912 7086 4.5 35 8 2 8 28% 8542 79524 14566 51%
c - 12.57 26 276 0 13 2896 31 30252 8924 4.4 33 8 2 8 27% 8579 79523 14566 51%
c - 13.16 26 271 0 14 3123 30 33857 10748 4.3 32 8 2 7 27% 8630 79523 14566 51%
c
c  seconds   switched     rate         size/glue tier1    binary         remaining
c         MB   reductions   conflicts        size  tier2     irredundant
c           level   restarts      redundant    glue   trail         variables
c
c - 13.68 26 263 0 15 3308 29 37598 12339 4.1 31 7 2 7 26% 8689 79523 14566 51%
c o 14.08 26 264 0 15 3414 28 40007 14306 4.1 30 7 2 7 26% 8761 79523 14566 51%
c c 14.64 26 261 0 15 3645 29 41245 15428 4.2 31 7 2 7 26% 8879 78781 14430 50%
c d 14.65 26 261 0 15 3645 29 41245 15062 4.2 31 7 2 7 26% 8607 78781 14430 50%
c u 14.72 26 261 0 15 3645 29 41245 12743 4.2 31 7 2 7 26% 8646 78781 14430 50%
c v 14.78 26 261 0 15 3645 29 41245 11765 4.2 31 7 2 7 26% 8654 78781 14430 50%
c w 14.83 26 261 0 15 3645 29 41245 11765 4.2 31 7 2 7 26% 8654 78781 14430 50%
c x 14.90 26 261 0 15 3645 29 41245 11765 4.2 31 7 2 7 26% 8657 75321 14430 50%
c = 15.14 26 261 0 15 3645 29 41245 11765 4.2 31 7 2 7 26% 8661 75321 14428 50%
c d 15.15 26 261 0 15 3645 29 41245 11738 4.2 31 7 2 7 26% 8622 75321 14411 50%
c t 15.17 26 261 0 15 3645 29 41245 11738 4.2 31 7 2 7 26% 8619 75321 14411 50%
c c 15.23 26 261 0 15 3645 29 41245 11738 4.2 31 7 2 7 26% 8648 75184 14394 50%
c d 15.24 26 261 0 15 3645 29 41245 11699 4.2 31 7 2 7 26% 8614 75184 14394 50%
c u 15.29 26 261 0 15 3645 29 41245 11190 4.2 31 7 2 7 26% 8623 75184 14394 50%
c v 15.34 26 261 0 15 3645 29 41245 10626 4.2 31 7 2 7 26% 8630 75184 14394 50%
c w 15.42 26 261 0 15 3645 29 41245 10626 4.2 31 7 2 7 26% 8630 75184 14394 50%
c x 15.48 26 261 0 15 3645 29 41245 10626 4.2 31 7 2 7 26% 8631 74567 14394 50%
c = 15.73 26 261 0 15 3645 29 41245 10626 4.2 31 7 2 7 26% 9351 74567 14033 49%
c d 15.74 26 261 0 15 3645 29 41245 10550 4.2 31 7 2 7 26% 8601 74563 14027 49%
c - 15.85 26 260 0 16 3680 29 41471 9447 4.1 31 7 2 7 26% 8611 74563 14027 49%
c
c  seconds   switched     rate         size/glue tier1    binary         remaining
c         MB   reductions   conflicts        size  tier2     irredundant
c           level   restarts      redundant    glue   trail         variables
c
c - 16.64 26 261 0 17 4027 29 45471 11472 4.1 31 8 2 7 27% 8651 74558 14027 49%
c - 17.32 26 256 0 18 4301 28 49594 13347 4.0 30 7 2 7 26% 8741 74555 14027 49%
c s 17.87 26 255 0 18 4519 28 52109 15542 4.0 30 8 2 7 27% 8788 72141 14027 49%
c e 17.96 26 255 0 18 4519 28 52109 15542 4.0 30 8 2 7 27% 8315 72615 13726 48%
c 2 17.96 26 255 0 18 4519 28 52109 15542 4.0 30 8 2 7 27% 8314 72615 13726 48%
c s 17.96 26 255 0 18 4519 28 52109 15542 4.0 30 8 2 7 27% 8314 72236 13726 48%
c e 17.97 26 255 0 18 4519 28 52109 15542 4.0 30 8 2 7 27% 8314 72242 13723 48%
c ^ 17.97 26 255 0 18 4519 28 52109 15542 4.0 30 8 2 7 27% 8314 72242 13723 48%
c - 18.25 26 251 0 19 4650 28 53837 13959 4.0 30 8 2 7 26% 8359 72241 13723 48%
c - 18.89 26 251 0 20 4960 27 58195 15635 3.9 29 8 2 6 26% 8446 72241 13723 48%
c c 19.01 26 250 0 20 5047 27 58891 16285 3.9 29 8 2 6 26% 8617 71173 13567 47%
c d 19.02 26 250 0 20 5047 27 58891 15930 3.9 29 8 2 6 26% 8305 71173 13567 47%
c u 19.06 26 250 0 20 5047 27 58891 13563 3.9 29 8 2 6 26% 8348 71173 13567 47%
c v 19.10 26 250 0 20 5047 27 58891 12179 3.9 29 8 2 6 26% 8359 71173 13567 47%
c w 19.13 26 250 0 20 5047 27 58891 12128 3.9 29 8 2 6 26% 8359 71173 13567 47%
c x 19.18 26 250 0 20 5047 27 58891 12128 3.9 29 8 2 6 26% 8361 70401 13567 47%
c = 19.41 26 250 0 20 5047 27 58891 12128 3.9 29 8 2 6 26% 9217 70399 13139 46%
c d 19.41 26 250 0 20 5047 27 58891 11649 3.9 29 8 2 6 26% 8254 70399 13133 46%
c t 19.42 26 250 0 20 5047 27 58891 11649 3.9 29 8 2 6 26% 8243 70399 13133 46%
c f 19.44 26 250 0 20 5047 27 58891 11649 3.9 29 8 2 6 26% 8245 70392 13134 46%
c
c  seconds   switched     rate         size/glue tier1    binary         remaining
c         MB   reductions   conflicts        size  tier2     irredundant
c           level   restarts      redundant    glue   trail         variables
c
c c 19.47 26 250 0 20 5047 27 58891 11647 3.9 29 8 2 6 26% 8251 70368 13131 46%
c d 19.48 26 250 0 20 5047 27 58891 11647 3.9 29 8 2 6 26% 8245 70368 13131 46%
c u 19.51 26 250 0 20 5047 27 58891 10976 3.9 29 8 2 6 26% 8251 70368 13131 46%
c v 19.53 26 250 0 20 5047 27 58891 10720 3.9 29 8 2 6 26% 8251 70368 13131 46%
c w 19.57 26 250 0 20 5047 27 58891 10695 3.9 29 8 2 6 26% 8251 70368 13131 46%
c x 19.63 26 250 0 20 5047 27 58891 10695 3.9 29 8 2 6 26% 8253 69770 13131 46%
c d 19.68 26 250 0 20 5047 27 58891 10695 3.9 29 8 2 6 26% 8249 69770 13129 46%
c - 20.18 26 245 0 21 5483 27 62669 12332 3.8 29 8 2 6 26% 8338 69770 13129 46%
c - 20.70 26 237 0 22 5906 27 67251 14565 3.8 29 8 2 6 26% 8449 69770 13129 46%
c o 20.96 26 235 0 22 6122 27 70035 16902 3.8 28 8 2 6 26% 8493 69770 13129 46%
c - 21.25 26 232 0 23 6333 27 71941 16330 3.8 29 8 2 6 26% 8521 69770 13129 46%
c - 21.56 26 232 0 24 6589 26 76736 17884 3.7 28 8 2 6 25% 8578 69770 13129 46%
c d 21.96 26 230 0 24 6884 25 79987 20305 3.7 28 8 2 6 26% 8306 69770 12970 45%
c u 22.01 26 230 0 24 6884 25 79987 17169 3.7 28 8 2 6 26% 8340 69770 12970 45%
c v 22.07 26 230 0 24 6884 25 79987 15379 3.7 28 8 2 6 26% 8343 69770 12970 45%
c w 22.10 26 230 0 24 6884 25 79987 15375 3.7 28 8 2 6 26% 8343 69770 12970 45%
c x 22.16 26 230 0 24 6884 25 79987 15375 3.7 28 8 2 6 26% 8344 66535 12970 45%
c d 22.16 26 230 0 24 6884 25 79987 15359 3.7 28 8 2 6 26% 8314 66535 12955 45%
c t 22.17 26 230 0 24 6884 25 79987 15359 3.7 28 8 2 6 26% 8307 66535 12955 45%
c c 22.21 26 230 0 24 6884 25 79987 15359 3.7 28 8 2 6 26% 8383 66199 12916 45%
c
c  seconds   switched     rate         size/glue tier1    binary         remaining
c         MB   reductions   conflicts        size  tier2     irredundant
c           level   restarts      redundant    glue   trail         variables
c
c d 22.21 26 230 0 24 6884 25 79987 15275 3.7 28 8 2 6 26% 8305 66199 12916 45%
c u 22.25 26 230 0 24 6884 25 79987 14539 3.7 28 8 2 6 26% 8320 66199 12916 45%
c v 22.29 26 230 0 24 6884 25 79987 13928 3.7 28 8 2 6 26% 8326 66199 12916 45%
c w 22.37 26 230 0 24 6884 25 79987 13918 3.7 28 8 2 6 26% 8326 66199 12916 45%
c x 22.42 26 230 0 24 6884 25 79987 13918 3.7 28 8 2 6 26% 8326 66032 12916 45%
c = 22.69 26 230 0 24 6884 25 79987 13918 3.7 28 8 2 6 26% 9088 65917 12522 44%
c d 22.70 26 230 0 24 6884 25 79987 13174 3.7 28 8 2 6 26% 8222 65917 12522 44%
c t 22.71 26 230 0 24 6884 25 79987 13174 3.7 28 8 2 6 26% 8220 65917 12522 44%
c - 22.89 26 229 0 25 6998 25 81634 12998 3.7 28 8 2 6 26% 8213 65917 12522 44%
c - 23.52 26 222 0 26 7540 25 86634 14092 3.6 28 8 1 6 26% 8243 65917 12522 44%
c i 23.92 26 216 0 26 7884 25 90808 17570 3.6 28 8 1 6 26% 8294 65917 12521 44%
c - 24.13 26 215 0 27 8052 25 91737 15514 3.6 28 8 1 6 26% 8291 65917 12521 44%
c i 24.41 26 213 0 27 8302 25 93656 17201 3.6 28 8 1 6 26% 8316 65917 12520 44%
c s 24.60 26 211 0 27 8454 25 95828 19057 3.6 28 8 1 6 26% 8343 63885 12520 44%
c e 24.67 26 211 0 27 8454 25 95828 19057 3.6 28 8 1 6 26% 5492 70314 11012 38%
c 2 24.67 26 211 0 27 8454 25 95828 19057 3.6 28 8 1 6 26% 5491 70314 11012 38%
c s 24.68 26 211 0 27 8454 25 95828 19057 3.6 28 8 1 6 26% 5491 69904 11012 38%
c e 24.69 26 211 0 27 8454 25 95828 19057 3.6 28 8 1 6 26% 5491 69982 10966 38%
c ^ 24.69 26 211 0 27 8454 25 95828 19057 3.6 28 8 1 6 26% 5491 69982 10966 38%
c i 24.74 26 211 0 27 8496 25 96306 14097 3.5 28 8 1 6 26% 5494 69982 10965 38%
c
c  seconds   switched     rate         size/glue tier1    binary         remaining
c         MB   reductions   conflicts        size  tier2     irredundant
c           level   restarts      redundant    glue   trail         variables
c
c - 24.81 26 210 0 28 8555 25 96934 12417 3.5 28 8 1 6 26% 5496 69974 10965 38%
c i 25.26 26 207 0 28 8937 24 102015 16655 3.5 27 8 1 6 26% 5559 69973 10964 38%
c - 25.28 26 207 0 29 8942 24 102225 14300 3.5 27 8 1 6 26% 5558 69973 10964 38%
c i 25.53 26 205 0 29 9177 24 103563 15548 3.5 27 8 1 6 26% 5568 69972 10963 38%
c i 25.57 26 205 0 29 9218 24 103846 15774 3.5 27 8 1 6 26% 5578 69972 10962 38%
c i 25.57 26 205 0 29 9220 24 103851 15777 3.5 27 8 1 6 26% 5578 69972 10960 38%
c i 25.62 26 205 0 29 9263 24 104326 16204 3.5 27 8 1 6 26% 5592 69972 10959 38%
c c 25.68 26 204 0 29 9303 24 104662 16500 3.5 27 8 1 6 26% 5653 69317 10880 38%
c d 25.68 26 204 0 29 9303 24 104662 15994 3.5 27 8 1 6 26% 5517 69305 10880 38%
c d 25.69 26 204 0 29 9303 24 104662 15965 3.5 27 8 1 6 26% 5495 69305 10870 38%
c u 25.71 26 204 0 29 9303 24 104662 14071 3.5 27 8 1 6 26% 5520 69305 10866 38%
c v 25.76 26 204 0 29 9303 24 104662 11727 3.5 27 8 1 6 26% 5537 69305 10866 38%
c w 25.93 26 204 0 29 9303 24 104662 11578 3.5 27 8 1 6 26% 5535 69305 10866 38%
c d 26.28 26 204 0 29 9303 24 104662 11544 3.5 27 8 1 6 26% 5504 69272 10848 38%
c d 26.29 26 204 0 29 9303 24 104662 11543 3.5 27 8 1 6 26% 5498 69264 10845 38%
c t 26.29 26 204 0 29 9303 24 104662 11543 3.5 27 8 1 6 26% 5496 69264 10845 38%
c f 26.33 26 204 0 29 9303 24 104662 11543 3.5 27 8 1 6 26% 5508 69192 10851 38%
c c 26.35 26 204 0 29 9303 24 104662 11517 3.5 27 8 1 6 26% 5496 69090 10838 38%
c d 26.36 26 204 0 29 9303 24 104662 11517 3.5 27 8 1 6 26% 5482 69090 10838 38%
c u 26.38 26 204 0 29 9303 24 104662 11027 3.5 27 8 1 6 26% 5486 69090 10838 38%
c
c  seconds   switched     rate          size/glue tier1    binary         remaining
c         MB   reductions   conflicts         size  tier2     irredundant
c           level   restarts       redundant    glue   trail         variables
c
c v 26.40 26 204 0 29 9303 24 104662 10521 3.5 27 8 1 6 26% 5486 69090 10838 38%
c w 26.52 26 204 0 29 9303 24 104662 10445 3.5 27 8 1 6 26% 5486 69090 10838 38%
c x 26.58 26 204 0 29 9303 24 104662 10445 3.5 27 8 1 6 26% 5487 68948 10838 38%
c d 26.58 26 204 0 29 9303 24 104662 10444 3.5 27 8 1 6 26% 5485 68948 10837 38%
c i 26.59 26 204 0 29 9303 24 104662 10444 3.5 27 8 1 6 26% 5485 68948 10837 38%
c - 26.85 26 201 0 30 9539 24 107610 10973 3.4 27 8 1 6 26% 5515 68948 10837 38%
c i 27.18 26 198 0 30 9921 24 109915 13024 3.4 27 8 1 6 27% 5532 68947 10836 38%
c o 27.19 26 198 0 30 9927 24 110036 13141 3.4 27 8 1 6 27% 5532 68947 10836 38%
c i 27.21 26 198 0 30 9949 24 110114 13211 3.4 27 8 1 6 27% 5534 68947 10835 38%
c i 27.24 26 198 0 30 9986 24 110406 13467 3.4 27 8 1 6 27% 5541 68947 10834 38%
c i 27.25 26 198 0 30 9994 24 110556 13590 3.4 27 8 1 6 27% 5543 68946 10833 38%
c i 27.43 26 194 0 30 10152 24 113077 15899 3.3 26 8 1 6 27% 5555 68946 10827 38%
c - 27.43 26 194 0 31 10152 24 113087 13123 3.3 26 8 1 6 27% 5548 68946 10827 38%
c i 27.46 26 193 0 31 10181 24 113643 13588 3.3 26 8 1 6 27% 5559 68946 10824 38%
c i 27.47 26 192 0 31 10192 24 113928 13802 3.3 26 8 1 6 26% 5567 68946 10820 38%
c i 27.47 26 192 0 31 10192 24 113986 13821 3.3 26 8 1 6 26% 5574 68946 10819 38%
c i 27.48 26 192 0 31 10203 23 114163 13945 3.3 26 8 1 6 26% 5584 68946 10818 38%
c i 27.48 26 192 0 31 10210 23 114301 14047 3.3 26 8 1 6 26% 5586 68946 10817 38%
c i 27.49 26 191 0 31 10220 23 114482 14189 3.3 26 8 1 6 26% 5592 68946 10816 38%
c i 27.49 26 190 0 31 10220 23 115024 14607 3.3 26 8 1 6 26% 5599 68946 10814 38%
c
c  seconds   switched      rate          size/glue tier1    binary         remaining
c         MB   reductions    conflicts         size  tier2     irredundant
c           level   restarts        redundant    glue   trail         variables
c
c i 27.49 26 190 0 31 10220 23 115039 14611 3.3 26 8 1 6 26% 5602 68946 10805 38%
c i 27.49 26 190 0 31 10220 23 115042 14611 3.3 26 8 1 6 26% 5604 68946 10802 38%
c } 27.49 26 190 0 31 10220 23 115046 14610 3.3 26 8 1 6 26% 5605 68946 10795 38%
c 0 27.49 26 190 0 31 10220 23 115046 14610 3.3 26 8 1 6 26% 5605 68946 10795 38%
c
c ---- [ result ] ------------------------------------------------------------
c
s UNSATISFIABLE
c
c ---- [ profiling ] ---------------------------------------------------------
c
c          19.01   69.16 %  search
c          19.01   69.16 %  focused
c           7.90   28.74 %  simplify
c           7.67   27.88 %  probe
c           2.96   10.76 %  sweep
c           2.92   10.63 %  vivify
c           0.59    2.15 %  factor
c           0.58    2.09 %  congruence
c           0.53    1.93 %  eliminate
c           0.49    1.78 %  preprocess
c           0.45    1.63 %  substitute
c           0.18    0.67 %  fastel
c           0.16    0.57 %  reduce
c           0.12    0.44 %  transitive
c           0.09    0.33 %  subsume
c           0.05    0.20 %  lucky
c           0.05    0.18 %  backbone
c           0.03    0.12 %  parse
c =============================================
c          27.49  100.00 %  total
c
c ---- [ statistics ] --------------------------------------------------------
c
c chronological:                         4576                4 %  conflicts
c conflicts:                           115046             4184.31 per second
c congruent:                             3777               13 %  variables
c decisions:                          2651819               23.05 per conflict
c eliminated:                           11870               41 %  variables
c factored:                              4427               15 %  variables
c fast_eliminated:                       8671               73 %  eliminated
c fast_strengthened:                       12                3 %  per strengthened
c fast_subsumed:                          103                1 %  per subsumed
c iterations:                              23                0 %  variables
c propagations:                     106832821          3885587    per second
c reductions:                              31             3711    interval
c reordered:                                5            23009    interval
c restarts:                             10220               11    interval
c strengthened:                           432                0 %  checks
c substituted:                          10378               36 %  variables
c subsumed:                             18272                1 %  checks
c switched:                                 0                0    interval
c vivified:                             53853               11 %  checks
c
c ---- [ glue usage ] --------------------------------------------------------
c
c focused glue 1   used 148020 clauses 53.25% accumulated 53.25% tier1
c focused glue 2   used  61577 clauses 22.15% accumulated 75.41%
c focused glue 3-4 used  30880 clauses 11.11% accumulated 86.52%
c focused glue 5   used   8129 clauses  2.92% accumulated 89.44%
c focused glue 6   used   6000 clauses  2.16% accumulated 91.60% tier2
c
c ---- [ resources ] ---------------------------------------------------------
c
c maximum-resident-set-size:         27074560 bytes         26 MB
c process-time:                            27s              27.49 seconds
c
c ---- [ shutting down ] -----------------------------------------------------
c
c exit 20
